
domSetOfBlockInFunction = array1d(allBlocksInFunction, [{0},{1,6,0},{2,5,0},{3,8,1,6,0},{4,1,6,0},{5,0},{6,0},{7,1,6,0},{8,1,6,0}]);

execFrequencyOfBlockInFunction = array1d(allBlocksInFunction, [16384,6144,10240,3072,6144,16384,16384,6144,6144]);

defEdgesForBlockInFunction = array1d(allBlocksInFunction, [{},{16},{},{17},{6},{},{},{},{}]);

entryBlockOfFunction = 0;

funLocDomain = [|0, 1, 33, |];

numBlocksInFunction = 9;

numDataInFunction = 20;

numOperationsInFunction = 25;

statesInFunction = [];

inBlock = inBlock = [|6, 0, |7, 0, |8, 0, |9, 0, |29, 3, |30, 5, |31, 6, |32, 7, |33, 8, |34, 4, |35,... ]; // array too long to display, dimensions: (23)


inBlockSucc = inBlockSucc = [|1, 3, 4, |2, 5, 2, |3, 6, 1, |4, 7, 4, |5, 8, 3, |19, 0, 5, |20, 0, 6, |21, 1, ... ]; // array too long to display, dimensions: (43)


locDomain = locDomain = [|18, 8, 1, 31, |18, 13, 1, 31, |18, 3, 1, 31, |19, 1, locValueForNull, locValueF... ]; // array too long to display, dimensions: (89)


applyDefDomUseConstraintForMatch = array1d(allMatches, applyDefDomUseConstraintForMatch = [false,true,true,true,true,true,true,true,true,true,true,true,true,true,true,true... ] // array too long to display, dimensions: (46)
);

codeSizeOfMatch = array1d(allMatches, codeSizeOfMatch = [0,0,0,0,0,0,0,0,0,0,0,0,0,0,0,0,0,0,12,4,4,4,4,4,4,4,4,4,4,4,4,4,4,4,12,12,0,0,4... ] // array too long to display, dimensions: (46)
);

consumedBlocksInMatch = array1d(allMatches, consumedBlocksInMatch = [{},{},{},{},{},{},{},{},{},{},{},{},{},{},{},{},{},{},{},{},{},{},{},{},{},{},{}... ] // array too long to display, dimensions: (46)
);

dataDefinedByMatch = array1d(allMatches, dataDefinedByMatch = [{6},{},{},{},{},{},{19},{0},{2},{5},{12},{14},{7},{8},{9},{10},{16},{18},{3},{1,... ] // array too long to display, dimensions: (53)
);

dataUsedByMatch = array1d(allMatches, dataUsedByMatch = [{17,16},{},{},{},{},{},{},{},{},{},{1},{3},{0},{0},{0},{0},{4},{6},{8,13},{9,11,... ] // array too long to display, dimensions: (66)
);

entryBlockOfMatch = array1d(allMatches, entryBlockOfMatch = [{},{3},{5},{6},{7},{8},{0},{0},{0},{0},{},{},{},{},{},{},{},{},{},{0},{0},{1},{1... ] // array too long to display, dimensions: (46)
);

latencyOfMatch = array1d(allMatches, latencyOfMatch = [0,0,0,0,0,0,0,0,0,0,0,0,0,0,0,0,0,0,3,1,1,1,1,1,1,1,1,1,1,1,1,1,1,1,2,2,0,0,1,1,... ] // array too long to display, dimensions: (46)
);

nonCopyMatches = {0,1,2,3,4,5,6,7,8,9,18,19,20,21,22,23,24,25,26,27,28,29,30,31,32,33,34,35};

operationsCoveredByMatch = array1d(allMatches, operationsCoveredByMatch = [{3},{6},{21},{22},{23},{24},{},{},{},{},{14},{16},{9},{10},{11},{12},{18},{20},{... ] // array too long to display, dimensions: (58)
);

spannedBlocksInMatch = array1d(allMatches, spannedBlocksInMatch = [{},{3,4},{5,2},{6,1},{7,4},{8,3},{0},{0},{0},{0},{},{},{},{},{},{},{},{},{},{0,6... ] // array too long to display, dimensions: (74)
);

numLocations = 34;

numMatches = 46;

sameLoc = sameLoc = [|0, 17, 16, |0, 16, 6, |10, 1, 12, |11, 3, 14, |12, 0, 7, |13, 0, 8, |14, 0, 9, ... ]; // array too long to display, dimensions: (31)


